(declare-fun temp1801_2 () (_ BitVec 64))
(declare-fun temp1801_1 () (_ BitVec 64))
(declare-fun temp1801_4 () (_ BitVec 64))
(declare-fun temp1801_3 () (_ BitVec 64))
(declare-fun temp1801_6 () (_ BitVec 64))
(declare-fun temp1801_5 () (_ BitVec 64))
(declare-fun temp1801_8 () (_ BitVec 64))
(declare-fun temp1801_7 () (_ BitVec 64))
(declare-fun temp1801_10 () (_ BitVec 64))
(declare-fun temp1801_9 () (_ BitVec 64))
(declare-fun temp1801_11 () (_ BitVec 64))
(declare-fun var2298106 () (_ BitVec 64))
(declare-fun var2298114 () (_ BitVec 64))
(declare-fun temp1801_12 () (_ BitVec 64))
(declare-fun var3548250 () (_ BitVec 64))
(declare-fun temp1801_13 () (_ BitVec 64))
(declare-fun temp1801_15 () (_ BitVec 64))
(declare-fun temp1801_14 () (_ BitVec 64))
(declare-fun temp1801_17 () (_ BitVec 64))
(declare-fun temp1801_16 () (_ BitVec 64))
(declare-fun temp1801_19 () (_ BitVec 64))
(declare-fun temp1801_18 () (_ BitVec 64))
(assert (= temp1801_2 #x0000000000000000))
(assert (= temp1801_1 temp1801_2))
(assert (= temp1801_4 #x0000000000000000))
(assert (= temp1801_3 temp1801_4))
(assert (= temp1801_6 #x0000000000000000))
(assert (= temp1801_5 temp1801_6))
(assert (= temp1801_8 #x000000000000002b))
(assert (= temp1801_7 temp1801_8))
(assert (= temp1801_10 #x0000000000000001))
(assert (= temp1801_9 temp1801_10))
(assert (= temp1801_11 #x0000000000000001))
(assert (= var2298106 temp1801_11))
(assert (= var2298114 var2298106))
(assert (= temp1801_12 #x0000000000000000))
(assert (= var3548250 temp1801_12))
(assert (= temp1801_13 #x0000000000000000))
(assert (or false (= var3548250 temp1801_13)))
(assert (= temp1801_15 #x0000000000000000))
(assert (= temp1801_14 temp1801_15))
(assert (= temp1801_17 #x0000000000000000))
(assert (= temp1801_16 temp1801_17))
(assert (= temp1801_19 #x0000000000000001))
(assert (= temp1801_18 temp1801_19))
(model-add temp1801_2 () (_ BitVec 64) #x0000000000000000)
(model-add temp1801_1 () (_ BitVec 64) #x0000000000000000)
(model-add temp1801_4 () (_ BitVec 64) #x0000000000000000)
(model-add temp1801_3 () (_ BitVec 64) #x0000000000000000)
(model-add temp1801_6 () (_ BitVec 64) #x0000000000000000)
(model-add temp1801_5 () (_ BitVec 64) #x0000000000000000)
(model-add temp1801_8 () (_ BitVec 64) #x000000000000002b)
(model-add temp1801_7 () (_ BitVec 64) #x000000000000002b)
(model-add temp1801_10 () (_ BitVec 64) #x0000000000000001)
(model-add temp1801_9 () (_ BitVec 64) #x0000000000000001)
(model-add temp1801_11 () (_ BitVec 64) #x0000000000000001)
(model-add var2298106 () (_ BitVec 64) #x0000000000000001)
(model-add var2298114 () (_ BitVec 64) #x0000000000000001)
(model-add temp1801_12 () (_ BitVec 64) #x0000000000000000)
(model-add var3548250 () (_ BitVec 64) #x0000000000000000)
(model-add temp1801_13 () (_ BitVec 64) #x0000000000000000)






